% File represents an instance of a Composite Structure problem to be solved by a CP framework
% Created on 2025-03-26 10:41:19.522
T = 50;
n = 9;
m = 12;
edges = [(1, 2),
(4, 5),
(8, 7),
(2, 3),
(6, 5),
(9, 8),
(1, 4),
(4, 7),
(2, 5),
(5, 8),
(6, 3),
(6, 9)];
counts = [|10, 18, 10, 12,
|10, 16, 10, 8,
|8, 16, 8, 8,
|10, 16, 10, 8,
|10, 14, 10, 8,
|10, 18, 10, 8,
|10, 10, 10, 8,
|10, 12, 10, 8,
|10, 14, 10, 8|];
